kpoints for bandstructure GAMMA-X-P-N-Gamma-M-S
 10
line-mode
reciprocal
    0.0000000000     0.0000000000     0.0000000000     \Gamma
    0.0000000000     0.0000000000     0.5000000000     X


    0.0000000000     0.0000000000     0.5000000000     X 
    0.2500000000     0.2500000000     0.2500000000     P


    0.2500000000     0.2500000000     0.2500000000     P
    0.0000000000     0.5000000000     0.0000000000     N


    0.0000000000     0.5000000000     0.0000000000     N
    0.0000000000     0.0000000000     0.0000000000     \Gamma


    0.0000000000     0.0000000000     0.0000000000     \Gamma
    0.5000000000     0.5000000000    -0.5000000000     M


    0.5000000000     0.5000000000    -0.5000000000     M 
    0.3127619400     0.6872380600    -0.3127619400     S 
